StudentsNr = 10;
InstructorsNr = 89;
DaysNr = 1;
SlotsPerDay = 15;
AvailabilitySlotsLenght = 15;
RoomNr = 2;
ProgrammNr = 2;
DegreeNr = 2;
RolesNr = 3;
CoursesNr = 4;
InstructorsProgramm = [{2}, {1, 2}, {2}, {2}, {1}, {1}, {2}, {1}, {2}, {1, 2}, {1, 2}, {2}, {1, 2}, {2}, {2}, {1}, {2}, {1, 2}, {2}, {2}, {1, 2}, {2}, {2}, {1}, {1, 2}, {1}, {1}, {2}, {1}, {2}, {1, 2}, {2}, {2}, {1}, {1}, {2}, {2}, {1}, {1, 2}, {1}, {2}, {1, 2}, {1, 2}, {1, 2}, {2}, {2}, {1, 2}, {2}, {1, 2}, {1, 2}, {1, 2}, {1, 2}, {2}, {2}, {1, 2}, {1}, {1}, {1, 2}, {2}, {1}, {2}, {1, 2}, {1}, {1}, {1}, {1, 2}, {1, 2}, {1}, {1}, {1, 2}, {2}, {1, 2}, {2}, {1}, {1, 2}, {2}, {1, 2}, {2}, {1, 2}, {2}, {1, 2}, {2}, {1}, {2}, {1, 2}, {1}, {2}, {2}, {2}];
InstructorRolesPerProgramm = [|{2, 5, 16, 18, 24, 26, 39, 40, 49, 56, 65, 66, 68, 72, 77, 85, 86}, {5, 6, 8, 11, 18, 24, 26, 29, 31, 39, 40, 44, 49, 55, 56, 58, 60, 62, 64, 65, 66, 67, 69, 70, 77, 79}, {8, 11, 13, 16, 25, 26, 27, 35, 39, 40, 42, 55, 64, 68, 75, 83, 85}|{1, 2, 9, 12, 18, 22, 23, 33, 39, 41, 49, 66, 72, 76, 77, 85, 87, 88}, {1, 11, 15, 18, 22, 31, 36, 39, 41, 44, 48, 49, 55, 58, 62, 66, 67, 70, 71, 73, 77, 78, 79, 80, 84, 87, 88}, {1, 4, 11, 12, 13, 19, 22, 23, 25, 28, 33, 36, 39, 42, 48, 53, 55, 75, 85, 87}|];
InstructorsAvailability = [|1, |1, |1, |1, |0, |1, |1, |0, |0, |1, |1, |1, |0, |1, |1, |1, |0, |1, |0, |1, |0, |0, |1, |1, |0, |0, |1, |1, |1, |1, |0, |1, |1, |0, |1, |1, |0, |0, |0, |0, |1, |0, |0, |0, |0, |0, |1, |1, |1, |1, |0, |0, |0, |0, |0, |1, |1, |1, |0, |0, |1, |0, |0, |0, |0, |0, |1, |0, |0, |1, |1, |0, |0, |1, |1, |0, |0, |1, |1, |0, |1, |0, |0, |1, |1, |1, |0, |0, |1|];
StudentsProgramm = [2, 2, 2, 2, 1, 1, 2, 2, 2, 1];
StudentsDegree = [2, 2, 1, 2, 1, 2, 2, 2, 2, 1];
StudentsSupervisorId = [85, 67, 81, 30, 64, 44, 42, 70, 19, 64];
StudentsCourseIds = [{2}, {2}, {}, {4}, {}, {1}, {1}, {1}, {3}, {}];
StudentsAvailability = [|0, |0, |1, |1, |0, |0, |1, |0, |0, |0|];
TheoryticalMinCard = [0, 0, 1, 1, 0, 0, 0, 0, 0, 0];
CoursesInstructorIds = [{4, 12, 21, 54, 55, 83}, {3, 5, 10, 19, 27, 33, 37, 39, 41, 49, 52, 54, 62, 64, 70, 71, 82, 83}, {1, 4, 6, 8, 9, 11, 12, 13, 14, 16, 19, 20, 23, 24, 25, 28, 29, 30, 33, 34, 36, 37, 41, 43, 45, 47, 48, 49, 50, 51, 52, 53, 57, 59, 61, 62, 64, 66, 67, 69, 70, 74, 77, 80, 81, 84, 87, 88, 89}, {2, 3, 6, 7, 8, 9, 12, 13, 14, 15, 17, 19, 21, 24, 25, 26, 27, 29, 32, 34, 35, 36, 38, 40, 43, 46, 48, 51, 53, 54, 55, 58, 59, 60, 61, 62, 63, 65, 66, 67, 70, 71, 72, 74, 76, 77, 79, 81, 83, 87, 88}];
RolesDemands = [9, 20, 11];
RolesContinuity = [1];
ExamLen = [1, 1, 2, 1, 2, 1, 1, 1, 1, 2];
LunchTsMinLen = 1;
LunchStarts = [5..10];
SupervisorAvailable = 0;
OptimalLunchLenght = [2, 1];
OptimalStartTs = [0, 0];
OptimalFinishTs = [2, 15];
MinimizeRooms = 300;
RolesSoftContinuity = [|1, 2, 3|1, 2, 3|];
SameDegreeInRoom = 10;
Mergeability = 0;
